p cnf 20 15
-3 16 10 4 -1 -18 19 -11 5 20 0
-8 -9 3 -11 -10 1 15 -4 -12 -5 0
13 12 1 6 9 -3 -14 15 -20 -7 0
-10 -15 -19 -17 5 16 -14 2 9 6 0
1 2 7 18 17 -11 -9 -15 -14 -13 0
6 18 -15 -10 -12 16 2 -7 9 -17 0
3 -11 -10 -17 12 5 -6 -15 -4 -9 0
-19 -5 -17 13 9 6 3 -18 4 15 0
20 -5 -12 1 -4 8 -10 18 17 -13 0
-16 -1 8 13 10 -11 7 -18 -14 -2 0
17 14 -15 -3 18 13 -6 -2 20 16 0
19 13 -11 6 -15 14 -5 -10 7 -18 0
-11 -1 -8 16 6 -7 -2 -17 3 12 0
-17 -6 -5 -20 -7 9 -11 -13 10 -18 0
12 -11 -16 10 -15 -14 20 4 -6 19 0
